NAME : mr12
COMMENT : 12-city problem (DISC)
TYPE : TSP
DIMENSION : 12
EDGE_WEIGHT_TYPE : EUC_2D
NODE_COORD_SECTION
1 16 95
2 75 86
3 27 1
4 54 53
5 2 56
6 92 49
7 91 77
8 4 17
9 96 77
10 14 3
11 29 14
12 61 12
EOF
